c description: Perfect Matching Principle on 
c generator: CNFgen (0.9.0)
c copyright: (C) 2012-2020 Massimo Lauria <massimo.lauria@uniroma1.it>
c url: https://massimolauria.net/cnfgen
c
p cnf 60 247
-1 -2 0
-1 -3 0
-2 -3 0
1 2 3 0
-4 -5 0
4 5 0
-6 -7 0
6 7 0
-8 -9 0
-8 -10 0
-9 -10 0
8 9 10 0
-11 -12 0
-11 -13 0
-11 -14 0
-12 -13 0
-12 -14 0
-13 -14 0
11 12 13 14 0
-11 -15 0
-11 -16 0
-11 -17 0
-15 -16 0
-15 -17 0
-16 -17 0
11 15 16 17 0
-4 -18 0
-4 -19 0
-4 -20 0
-4 -21 0
-18 -19 0
-18 -20 0
-18 -21 0
-19 -20 0
-19 -21 0
-20 -21 0
4 18 19 20 21 0
-12 -22 0
-12 -23 0
-12 -24 0
-22 -23 0
-22 -24 0
-23 -24 0
12 22 23 24 0
-15 -18 0
-15 -25 0
-15 -26 0
-18 -25 0
-18 -26 0
-25 -26 0
15 18 25 26 0
-16 -27 0
-16 -28 0
-16 -29 0
-16 -30 0
-27 -28 0
-27 -29 0
-27 -30 0
-28 -29 0
-28 -30 0
-29 -30 0
16 27 28 29 30 0
-1 -22 0
-1 -31 0
-1 -32 0
-1 -33 0
-1 -34 0
-22 -31 0
-22 -32 0
-22 -33 0
-22 -34 0
-31 -32 0
-31 -33 0
-31 -34 0
-32 -33 0
-32 -34 0
-33 -34 0
1 22 31 32 33 34 0
-25 -35 0
-25 -36 0
-25 -37 0
-35 -36 0
-35 -37 0
-36 -37 0
25 35 36 37 0
-6 -8 0
-6 -19 0
-6 -38 0
-6 -39 0
-6 -40 0
-8 -19 0
-8 -38 0
-8 -39 0
-8 -40 0
-19 -38 0
-19 -39 0
-19 -40 0
-38 -39 0
-38 -40 0
-39 -40 0
6 8 19 38 39 40 0
-17 -41 0
-17 -42 0
-17 -43 0
-41 -42 0
-41 -43 0
-42 -43 0
17 41 42 43 0
-9 -44 0
-9 -45 0
-9 -46 0
-9 -47 0
-44 -45 0
-44 -46 0
-44 -47 0
-45 -46 0
-45 -47 0
-46 -47 0
9 44 45 46 47 0
-35 -48 0
35 48 0
-26 -41 0
26 41 0
-5 -10 0
-5 -23 0
-5 -27 0
-5 -44 0
-5 -49 0
-10 -23 0
-10 -27 0
-10 -44 0
-10 -49 0
-23 -27 0
-23 -44 0
-23 -49 0
-27 -44 0
-27 -49 0
-44 -49 0
5 10 23 27 44 49 0
-31 -50 0
-31 -51 0
-50 -51 0
31 50 51 0
-24 -32 0
-24 -45 0
-24 -52 0
-32 -45 0
-32 -52 0
-45 -52 0
24 32 45 52 0
-28 -38 0
-28 -48 0
-28 -49 0
-28 -50 0
-38 -48 0
-38 -49 0
-38 -50 0
-48 -49 0
-48 -50 0
-49 -50 0
28 38 48 49 50 0
53 0
-7 -33 0
-7 -39 0
-7 -51 0
-7 -54 0
-7 -55 0
-33 -39 0
-33 -51 0
-33 -54 0
-33 -55 0
-39 -51 0
-39 -54 0
-39 -55 0
-51 -54 0
-51 -55 0
-54 -55 0
7 33 39 51 54 55 0
-13 -20 0
-13 -29 0
-13 -36 0
-13 -40 0
-13 -46 0
-13 -56 0
-20 -29 0
-20 -36 0
-20 -40 0
-20 -46 0
-20 -56 0
-29 -36 0
-29 -40 0
-29 -46 0
-29 -56 0
-36 -40 0
-36 -46 0
-36 -56 0
-40 -46 0
-40 -56 0
-46 -56 0
13 20 29 36 40 46 56 0
-53 -57 0
-53 -58 0
-57 -58 0
53 57 58 0
-2 -14 0
-2 -30 0
-2 -34 0
-2 -57 0
-14 -30 0
-14 -34 0
-14 -57 0
-30 -34 0
-30 -57 0
-34 -57 0
2 14 30 34 57 0
-21 -42 0
-21 -54 0
-21 -56 0
-21 -59 0
-42 -54 0
-42 -56 0
-42 -59 0
-54 -56 0
-54 -59 0
-56 -59 0
21 42 54 56 59 0
-3 -37 0
-3 -47 0
-3 -52 0
-3 -59 0
-3 -60 0
-37 -47 0
-37 -52 0
-37 -59 0
-37 -60 0
-47 -52 0
-47 -59 0
-47 -60 0
-52 -59 0
-52 -60 0
-59 -60 0
3 37 47 52 59 60 0
58 0
-43 -55 0
-43 -60 0
-55 -60 0
43 55 60 0